Minimize
	value: tt

Subject to
tt + 2000 s_1_1 > 0
tt - t_1_1 - 2003.000000 s_1_1 + 3.000000 s_1_6 > -1972.997400
tt + 2000 s_2_1 > 0
tt - t_2_1 - 2003.000000 s_2_1 + 3.000000 s_2_6 > -1960.587450
tt + 2000 s_1_2 > 0
tt - t_1_2 - 2003.000000 s_1_2 + 3.000000 s_1_7 > -1968.858200
tt + 2000 s_2_2 > 0
tt - t_2_2 - 2003.000000 s_2_2 + 3.000000 s_2_7 > -1954.786400
tt + 2000 s_1_3 > 0
tt - t_1_3 - 2003.000000 s_1_3 + 3.000000 s_1_7 > -1963.250600
tt + 2000 s_2_3 > 0
tt - t_2_3 - 2003.000000 s_2_3 + 3.000000 s_2_7 > -1936.407600
tt + 2000 s_1_4 > 0
tt - t_1_4 - 2012.000000 s_1_4 + 12.000000 s_1_3 > -1976.545200
tt + 2000 s_2_4 > 0
tt - t_2_4 - 2012.000000 s_2_4 + 12.000000 s_2_3 > -1964.773600
tt + 2000 s_1_5 > 0
tt - t_1_5 - 2012.000000 s_1_5 + 12.000000 s_1_7 > -1981.154800
tt + 2000 s_2_5 > 0
tt - t_2_5 - 2012.000000 s_2_5 + 12.000000 s_2_7 > -1968.477400
tt + 2000 s_1_6 > 0
tt - t_1_6 - 2000.000000 s_1_6 > -1949.991400
tt + 2000 s_2_6 > 0
tt - t_2_6 - 2000.000000 s_2_6 > -1934.069000
tt + 2000 s_1_7 > 0
tt - t_1_7 - 2000.000000 s_1_7 > -1949.980400
tt + 2000 s_2_7 > 0
tt - t_2_7 - 2000.000000 s_2_7 > -1934.118800
tt + 2000 s_1_8 > 0
tt - t_1_8 - 2075.000000 s_1_8 + 75.000000 s_1_3 > -1995.556600
tt + 2000 s_2_8 > 0
tt - t_2_8 - 2075.000000 s_2_8 + 75.000000 s_2_3 > -1945.171600
s_1_1 + s_2_1  = 1
s_1_2 + s_2_2  = 1
s_1_3 + s_2_3  = 1
s_1_4 + s_2_4  = 1
s_1_5 + s_2_5  = 1
s_1_6 + s_2_6  = 1
s_1_7 + s_2_7  = 1
s_1_8 + s_2_8  = 1
t_1_1 - t_1_2 + 2000.000000 u_1_1_2 - 3.000000 s_1_2 + 3.000000 s_1_7 > 31.141800
t_1_2 - t_1_1 - 2000.000000 u_1_1_2 > -1972.997400
t_2_1 - t_2_2 + 2000.000000 u_2_1_2 - 3.000000 s_2_2 + 3.000000 s_2_7 > 45.213600
t_2_2 - t_2_1 - 2000.000000 u_2_1_2 > -1960.587450
t_1_1 - t_1_3 + 2000.000000 u_1_1_3 - 3.000000 s_1_3 + 3.000000 s_1_7 > 36.749400
t_1_3 - t_1_1 - 2000.000000 u_1_1_3 > -1972.997400
t_2_1 - t_2_3 + 2000.000000 u_2_1_3 - 3.000000 s_2_3 + 3.000000 s_2_7 > 63.592400
t_2_3 - t_2_1 - 2000.000000 u_2_1_3 > -1960.587450
t_1_1 - t_1_4 + 2000.000000 u_1_1_4 - 6.000000 s_1_4 + 6.000000 s_1_3 > 23.454800
t_1_4 - t_1_1 - 2000.000000 u_1_1_4 > -1972.997400
t_2_1 - t_2_4 + 2000.000000 u_2_1_4 - 6.000000 s_2_4 + 6.000000 s_2_3 > 35.226400
t_2_4 - t_2_1 - 2000.000000 u_2_1_4 > -1960.587450
t_1_1 - t_1_5 + 2000.000000 u_1_1_5 - 6.000000 s_1_5 + 6.000000 s_1_7 > 18.845200
t_1_5 - t_1_1 - 2000.000000 u_1_1_5 > -1972.997400
t_2_1 - t_2_5 + 2000.000000 u_2_1_5 - 6.000000 s_2_5 + 6.000000 s_2_7 > 31.522600
t_2_5 - t_2_1 - 2000.000000 u_2_1_5 > -1960.587450
t_1_1 - t_1_6 - 2000.000000 s_1_6 > -1946.991400
t_1_1 - t_2_6 - 2000.000000 s_2_6 > -1931.069000
t_2_1 - t_1_6 - 2000.000000 s_1_6 > -1946.991400
t_2_1 - t_2_6 - 2000.000000 s_2_6 > -1931.069000
t_1_1 - t_1_7 + 2000.000000 u_1_1_7 > 50.019600
t_1_7 - t_1_1 - 2000.000000 u_1_1_7 > -1972.997400
t_2_1 - t_2_7 + 2000.000000 u_2_1_7 > 65.881200
t_2_7 - t_2_1 - 2000.000000 u_2_1_7 > -1960.587450
t_1_8 - t_1_1 - 2000.000000 s_1_1 > -1969.997400
t_1_8 - t_2_1 - 2000.000000 s_2_1 > -1957.587450
t_2_8 - t_1_1 - 2000.000000 s_1_1 > -1969.997400
t_2_8 - t_2_1 - 2000.000000 s_2_1 > -1957.587450
t_1_2 - t_1_1 + 2000.000000 u_1_2_1 - 3.000000 s_1_1 + 3.000000 s_1_6 > 27.002600
t_1_1 - t_1_2 - 2000.000000 u_1_2_1 > -1968.858200
t_2_2 - t_2_1 + 2000.000000 u_2_2_1 - 3.000000 s_2_1 + 3.000000 s_2_6 > 39.412550
t_2_1 - t_2_2 - 2000.000000 u_2_2_1 > -1954.786400
t_1_2 - t_1_3 + 2000.000000 u_1_2_3 - 3.000000 s_1_3 + 3.000000 s_1_7 > 36.749400
t_1_3 - t_1_2 - 2000.000000 u_1_2_3 > -1968.858200
t_2_2 - t_2_3 + 2000.000000 u_2_2_3 - 3.000000 s_2_3 + 3.000000 s_2_7 > 63.592400
t_2_3 - t_2_2 - 2000.000000 u_2_2_3 > -1954.786400
t_1_2 - t_1_4 + 2000.000000 u_1_2_4 - 6.000000 s_1_4 + 6.000000 s_1_3 > 23.454800
t_1_4 - t_1_2 - 2000.000000 u_1_2_4 > -1968.858200
t_2_2 - t_2_4 + 2000.000000 u_2_2_4 - 6.000000 s_2_4 + 6.000000 s_2_3 > 35.226400
t_2_4 - t_2_2 - 2000.000000 u_2_2_4 > -1954.786400
t_1_2 - t_1_5 + 2000.000000 u_1_2_5 - 6.000000 s_1_5 + 6.000000 s_1_7 > 18.845200
t_1_5 - t_1_2 - 2000.000000 u_1_2_5 > -1968.858200
t_2_2 - t_2_5 + 2000.000000 u_2_2_5 - 6.000000 s_2_5 + 6.000000 s_2_7 > 31.522600
t_2_5 - t_2_2 - 2000.000000 u_2_2_5 > -1954.786400
t_1_2 - t_1_6 + 2000.000000 u_1_2_6 > 50.008600
t_1_6 - t_1_2 - 2000.000000 u_1_2_6 > -1968.858200
t_2_2 - t_2_6 + 2000.000000 u_2_2_6 > 65.931000
t_2_6 - t_2_2 - 2000.000000 u_2_2_6 > -1954.786400
t_1_2 - t_1_7 - 2000.000000 s_1_7 > -1946.980400
t_1_2 - t_2_7 - 2000.000000 s_2_7 > -1931.118800
t_2_2 - t_1_7 - 2000.000000 s_1_7 > -1946.980400
t_2_2 - t_2_7 - 2000.000000 s_2_7 > -1931.118800
t_1_8 - t_1_2 - 2000.000000 s_1_2 > -1965.858200
t_1_8 - t_2_2 - 2000.000000 s_2_2 > -1951.786400
t_2_8 - t_1_2 - 2000.000000 s_1_2 > -1965.858200
t_2_8 - t_2_2 - 2000.000000 s_2_2 > -1951.786400
t_1_3 - t_1_1 + 2000.000000 u_1_3_1 - 3.000000 s_1_1 + 3.000000 s_1_6 > 27.002600
t_1_1 - t_1_3 - 2000.000000 u_1_3_1 > -1963.250600
t_2_3 - t_2_1 + 2000.000000 u_2_3_1 - 3.000000 s_2_1 + 3.000000 s_2_6 > 39.412550
t_2_1 - t_2_3 - 2000.000000 u_2_3_1 > -1936.407600
t_1_3 - t_1_2 + 2000.000000 u_1_3_2 - 3.000000 s_1_2 + 3.000000 s_1_7 > 31.141800
t_1_2 - t_1_3 - 2000.000000 u_1_3_2 > -1963.250600
t_2_3 - t_2_2 + 2000.000000 u_2_3_2 - 3.000000 s_2_2 + 3.000000 s_2_7 > 45.213600
t_2_2 - t_2_3 - 2000.000000 u_2_3_2 > -1936.407600
t_1_4 - t_1_3 - 2000.000000 s_1_3 > -1960.250600
t_1_4 - t_2_3 - 2000.000000 s_2_3 > -1933.407600
t_2_4 - t_1_3 - 2000.000000 s_1_3 > -1960.250600
t_2_4 - t_2_3 - 2000.000000 s_2_3 > -1933.407600
t_1_3 - t_1_5 + 2000.000000 u_1_3_5 - 6.000000 s_1_5 + 6.000000 s_1_7 > 18.845200
t_1_5 - t_1_3 - 2000.000000 u_1_3_5 > -1963.250600
t_2_3 - t_2_5 + 2000.000000 u_2_3_5 - 6.000000 s_2_5 + 6.000000 s_2_7 > 31.522600
t_2_5 - t_2_3 - 2000.000000 u_2_3_5 > -1936.407600
t_1_3 - t_1_6 + 2000.000000 u_1_3_6 > 50.008600
t_1_6 - t_1_3 - 2000.000000 u_1_3_6 > -1963.250600
t_2_3 - t_2_6 + 2000.000000 u_2_3_6 > 65.931000
t_2_6 - t_2_3 - 2000.000000 u_2_3_6 > -1936.407600
t_1_3 - t_1_7 - 2000.000000 s_1_7 > -1946.980400
t_1_3 - t_2_7 - 2000.000000 s_2_7 > -1931.118800
t_2_3 - t_1_7 - 2000.000000 s_1_7 > -1946.980400
t_2_3 - t_2_7 - 2000.000000 s_2_7 > -1931.118800
t_1_8 - t_1_3 - 2000.000000 s_1_3 > -1960.250600
t_1_8 - t_2_3 - 2000.000000 s_2_3 > -1933.407600
t_2_8 - t_1_3 - 2000.000000 s_1_3 > -1960.250600
t_2_8 - t_2_3 - 2000.000000 s_2_3 > -1933.407600
t_1_4 - t_1_1 + 2000.000000 u_1_4_1 - 3.000000 s_1_1 + 3.000000 s_1_6 > 27.002600
t_1_1 - t_1_4 - 2000.000000 u_1_4_1 > -1976.545200
t_2_4 - t_2_1 + 2000.000000 u_2_4_1 - 3.000000 s_2_1 + 3.000000 s_2_6 > 39.412550
t_2_1 - t_2_4 - 2000.000000 u_2_4_1 > -1964.773600
t_1_4 - t_1_2 + 2000.000000 u_1_4_2 - 3.000000 s_1_2 + 3.000000 s_1_7 > 31.141800
t_1_2 - t_1_4 - 2000.000000 u_1_4_2 > -1976.545200
t_2_4 - t_2_2 + 2000.000000 u_2_4_2 - 3.000000 s_2_2 + 3.000000 s_2_7 > 45.213600
t_2_2 - t_2_4 - 2000.000000 u_2_4_2 > -1964.773600
t_1_4 - t_1_3 - 2000.000000 s_1_3 > -1960.250600
t_1_4 - t_2_3 - 2000.000000 s_2_3 > -1933.407600
t_2_4 - t_1_3 - 2000.000000 s_1_3 > -1960.250600
t_2_4 - t_2_3 - 2000.000000 s_2_3 > -1933.407600
t_1_4 - t_1_5 + 2000.000000 u_1_4_5 - 6.000000 s_1_5 + 6.000000 s_1_7 > 18.845200
t_1_5 - t_1_4 - 2000.000000 u_1_4_5 > -1976.545200
t_2_4 - t_2_5 + 2000.000000 u_2_4_5 - 6.000000 s_2_5 + 6.000000 s_2_7 > 31.522600
t_2_5 - t_2_4 - 2000.000000 u_2_4_5 > -1964.773600
t_1_4 - t_1_6 + 2000.000000 u_1_4_6 > 50.008600
t_1_6 - t_1_4 - 2000.000000 u_1_4_6 > -1976.545200
t_2_4 - t_2_6 + 2000.000000 u_2_4_6 > 65.931000
t_2_6 - t_2_4 - 2000.000000 u_2_4_6 > -1964.773600
t_1_4 - t_1_7 - 2000.000000 s_1_7 > -1946.980400
t_1_4 - t_2_7 - 2000.000000 s_2_7 > -1931.118800
t_2_4 - t_1_7 - 2000.000000 s_1_7 > -1946.980400
t_2_4 - t_2_7 - 2000.000000 s_2_7 > -1931.118800
t_1_8 - t_1_4 - 2000.000000 s_1_4 > -1970.545200
t_1_8 - t_2_4 - 2000.000000 s_2_4 > -1958.773600
t_2_8 - t_1_4 - 2000.000000 s_1_4 > -1970.545200
t_2_8 - t_2_4 - 2000.000000 s_2_4 > -1958.773600
t_1_5 - t_1_1 + 2000.000000 u_1_5_1 - 3.000000 s_1_1 + 3.000000 s_1_6 > 27.002600
t_1_1 - t_1_5 - 2000.000000 u_1_5_1 > -1981.154800
t_2_5 - t_2_1 + 2000.000000 u_2_5_1 - 3.000000 s_2_1 + 3.000000 s_2_6 > 39.412550
t_2_1 - t_2_5 - 2000.000000 u_2_5_1 > -1968.477400
t_1_5 - t_1_2 + 2000.000000 u_1_5_2 - 3.000000 s_1_2 + 3.000000 s_1_7 > 31.141800
t_1_2 - t_1_5 - 2000.000000 u_1_5_2 > -1981.154800
t_2_5 - t_2_2 + 2000.000000 u_2_5_2 - 3.000000 s_2_2 + 3.000000 s_2_7 > 45.213600
t_2_2 - t_2_5 - 2000.000000 u_2_5_2 > -1968.477400
t_1_5 - t_1_3 + 2000.000000 u_1_5_3 - 3.000000 s_1_3 + 3.000000 s_1_7 > 36.749400
t_1_3 - t_1_5 - 2000.000000 u_1_5_3 > -1981.154800
t_2_5 - t_2_3 + 2000.000000 u_2_5_3 - 3.000000 s_2_3 + 3.000000 s_2_7 > 63.592400
t_2_3 - t_2_5 - 2000.000000 u_2_5_3 > -1968.477400
t_1_5 - t_1_4 + 2000.000000 u_1_5_4 - 6.000000 s_1_4 + 6.000000 s_1_3 > 23.454800
t_1_4 - t_1_5 - 2000.000000 u_1_5_4 > -1981.154800
t_2_5 - t_2_4 + 2000.000000 u_2_5_4 - 6.000000 s_2_4 + 6.000000 s_2_3 > 35.226400
t_2_4 - t_2_5 - 2000.000000 u_2_5_4 > -1968.477400
t_1_5 - t_1_6 - 2000.000000 s_1_6 > -1946.991400
t_1_5 - t_2_6 - 2000.000000 s_2_6 > -1931.069000
t_2_5 - t_1_6 - 2000.000000 s_1_6 > -1946.991400
t_2_5 - t_2_6 - 2000.000000 s_2_6 > -1931.069000
t_1_5 - t_1_7 - 2000.000000 s_1_7 > -1946.980400
t_1_5 - t_2_7 - 2000.000000 s_2_7 > -1931.118800
t_2_5 - t_1_7 - 2000.000000 s_1_7 > -1946.980400
t_2_5 - t_2_7 - 2000.000000 s_2_7 > -1931.118800
t_1_8 - t_1_5 - 2000.000000 s_1_5 > -1975.154800
t_1_8 - t_2_5 - 2000.000000 s_2_5 > -1962.477400
t_2_8 - t_1_5 - 2000.000000 s_1_5 > -1975.154800
t_2_8 - t_2_5 - 2000.000000 s_2_5 > -1962.477400
t_1_1 - t_1_6 - 2000.000000 s_1_6 > -1946.991400
t_1_1 - t_2_6 - 2000.000000 s_2_6 > -1931.069000
t_2_1 - t_1_6 - 2000.000000 s_1_6 > -1946.991400
t_2_1 - t_2_6 - 2000.000000 s_2_6 > -1931.069000
t_1_6 - t_1_2 + 2000.000000 u_1_6_2 - 3.000000 s_1_2 + 3.000000 s_1_7 > 31.141800
t_1_2 - t_1_6 - 2000.000000 u_1_6_2 > -1949.991400
t_2_6 - t_2_2 + 2000.000000 u_2_6_2 - 3.000000 s_2_2 + 3.000000 s_2_7 > 45.213600
t_2_2 - t_2_6 - 2000.000000 u_2_6_2 > -1934.069000
t_1_6 - t_1_3 + 2000.000000 u_1_6_3 - 3.000000 s_1_3 + 3.000000 s_1_7 > 36.749400
t_1_3 - t_1_6 - 2000.000000 u_1_6_3 > -1949.991400
t_2_6 - t_2_3 + 2000.000000 u_2_6_3 - 3.000000 s_2_3 + 3.000000 s_2_7 > 63.592400
t_2_3 - t_2_6 - 2000.000000 u_2_6_3 > -1934.069000
t_1_6 - t_1_4 + 2000.000000 u_1_6_4 - 6.000000 s_1_4 + 6.000000 s_1_3 > 23.454800
t_1_4 - t_1_6 - 2000.000000 u_1_6_4 > -1949.991400
t_2_6 - t_2_4 + 2000.000000 u_2_6_4 - 6.000000 s_2_4 + 6.000000 s_2_3 > 35.226400
t_2_4 - t_2_6 - 2000.000000 u_2_6_4 > -1934.069000
t_1_5 - t_1_6 - 2000.000000 s_1_6 > -1946.991400
t_1_5 - t_2_6 - 2000.000000 s_2_6 > -1931.069000
t_2_5 - t_1_6 - 2000.000000 s_1_6 > -1946.991400
t_2_5 - t_2_6 - 2000.000000 s_2_6 > -1931.069000
t_1_6 - t_1_7 + 2000.000000 u_1_6_7 > 50.019600
t_1_7 - t_1_6 - 2000.000000 u_1_6_7 > -1949.991400
t_2_6 - t_2_7 + 2000.000000 u_2_6_7 > 65.881200
t_2_7 - t_2_6 - 2000.000000 u_2_6_7 > -1934.069000
t_1_7 - t_1_1 + 2000.000000 u_1_7_1 - 3.000000 s_1_1 + 3.000000 s_1_6 > 27.002600
t_1_1 - t_1_7 - 2000.000000 u_1_7_1 > -1949.980400
t_2_7 - t_2_1 + 2000.000000 u_2_7_1 - 3.000000 s_2_1 + 3.000000 s_2_6 > 39.412550
t_2_1 - t_2_7 - 2000.000000 u_2_7_1 > -1934.118800
t_1_2 - t_1_7 - 2000.000000 s_1_7 > -1946.980400
t_1_2 - t_2_7 - 2000.000000 s_2_7 > -1931.118800
t_2_2 - t_1_7 - 2000.000000 s_1_7 > -1946.980400
t_2_2 - t_2_7 - 2000.000000 s_2_7 > -1931.118800
t_1_3 - t_1_7 - 2000.000000 s_1_7 > -1946.980400
t_1_3 - t_2_7 - 2000.000000 s_2_7 > -1931.118800
t_2_3 - t_1_7 - 2000.000000 s_1_7 > -1946.980400
t_2_3 - t_2_7 - 2000.000000 s_2_7 > -1931.118800
t_1_4 - t_1_7 - 2000.000000 s_1_7 > -1946.980400
t_1_4 - t_2_7 - 2000.000000 s_2_7 > -1931.118800
t_2_4 - t_1_7 - 2000.000000 s_1_7 > -1946.980400
t_2_4 - t_2_7 - 2000.000000 s_2_7 > -1931.118800
t_1_5 - t_1_7 - 2000.000000 s_1_7 > -1946.980400
t_1_5 - t_2_7 - 2000.000000 s_2_7 > -1931.118800
t_2_5 - t_1_7 - 2000.000000 s_1_7 > -1946.980400
t_2_5 - t_2_7 - 2000.000000 s_2_7 > -1931.118800
t_1_7 - t_1_6 + 2000.000000 u_1_7_6 > 50.008600
t_1_6 - t_1_7 - 2000.000000 u_1_7_6 > -1949.980400
t_2_7 - t_2_6 + 2000.000000 u_2_7_6 > 65.931000
t_2_6 - t_2_7 - 2000.000000 u_2_7_6 > -1934.118800
t_1_8 - t_1_1 - 2000.000000 s_1_1 > -1969.997400
t_1_8 - t_2_1 - 2000.000000 s_2_1 > -1957.587450
t_2_8 - t_1_1 - 2000.000000 s_1_1 > -1969.997400
t_2_8 - t_2_1 - 2000.000000 s_2_1 > -1957.587450
t_1_8 - t_1_2 - 2000.000000 s_1_2 > -1965.858200
t_1_8 - t_2_2 - 2000.000000 s_2_2 > -1951.786400
t_2_8 - t_1_2 - 2000.000000 s_1_2 > -1965.858200
t_2_8 - t_2_2 - 2000.000000 s_2_2 > -1951.786400
t_1_8 - t_1_3 - 2000.000000 s_1_3 > -1960.250600
t_1_8 - t_2_3 - 2000.000000 s_2_3 > -1933.407600
t_2_8 - t_1_3 - 2000.000000 s_1_3 > -1960.250600
t_2_8 - t_2_3 - 2000.000000 s_2_3 > -1933.407600
t_1_8 - t_1_4 - 2000.000000 s_1_4 > -1970.545200
t_1_8 - t_2_4 - 2000.000000 s_2_4 > -1958.773600
t_2_8 - t_1_4 - 2000.000000 s_1_4 > -1970.545200
t_2_8 - t_2_4 - 2000.000000 s_2_4 > -1958.773600
t_1_8 - t_1_5 - 2000.000000 s_1_5 > -1975.154800
t_1_8 - t_2_5 - 2000.000000 s_2_5 > -1962.477400
t_2_8 - t_1_5 - 2000.000000 s_1_5 > -1975.154800
t_2_8 - t_2_5 - 2000.000000 s_2_5 > -1962.477400
Binary
s_1_1
s_2_1
s_1_2
s_2_2
s_1_3
s_2_3
s_1_4
s_2_4
s_1_5
s_2_5
s_1_6
s_2_6
s_1_7
s_2_7
s_1_8
s_2_8
u_1_1_2
u_2_1_2
u_1_1_3
u_2_1_3
u_1_1_4
u_2_1_4
u_1_1_5
u_2_1_5
u_1_1_7
u_2_1_7
u_1_2_1
u_2_2_1
u_1_2_3
u_2_2_3
u_1_2_4
u_2_2_4
u_1_2_5
u_2_2_5
u_1_2_6
u_2_2_6
u_1_3_1
u_2_3_1
u_1_3_2
u_2_3_2
u_1_3_5
u_2_3_5
u_1_3_6
u_2_3_6
u_1_4_1
u_2_4_1
u_1_4_2
u_2_4_2
u_1_4_5
u_2_4_5
u_1_4_6
u_2_4_6
u_1_5_1
u_2_5_1
u_1_5_2
u_2_5_2
u_1_5_3
u_2_5_3
u_1_5_4
u_2_5_4
u_1_6_2
u_2_6_2
u_1_6_3
u_2_6_3
u_1_6_4
u_2_6_4
u_1_6_7
u_2_6_7
u_1_7_1
u_2_7_1
u_1_7_6
u_2_7_6

End
